c FILE /home/rafael/Documents/HappySet/MIHS/inputs/happygen/output/graph_d_regular_k4_p0.5_v50_20241127_082621.txt
c SOURCE This is a d-regular graph formed for the happy graph colouring problem.
c DESCRIPTION It was generated using the problem generator of Rhyd Lewis
c
c GRAPH STATS
c Seed                             = 1280785743
c Number of Nodes                  = 50
c Number of colours k              = 4
c Number of pre-assignments        = 25
c Degree of all vertices           = 6
c Density                          = 0.122449
c 
c The degrees of nodes 1 to 50, respectively, are as follows 
c [6, 6, 6, 6, 6, 6, 6, 6, 6, 6, 6, 6, 6, 6, 6, 6, 6, 6, 6, 6, 6, 6, 6, 6, 6, 6, 
c  6, 6, 6, 6, 6, 6, 6, 6, 6, 6, 6, 6, 6, 6, 6, 6, 6, 6, 6, 6, 6, 6, 6, 6] 
c  
p edge 50 150 4
e 1 13
e 1 14
e 1 22
e 1 31
e 1 41
e 1 49
e 2 19
e 2 21
e 2 28
e 2 30
e 2 35
e 2 43
e 3 5
e 3 7
e 3 8
e 3 23
e 3 47
e 3 48
e 4 11
e 4 32
e 4 38
e 4 45
e 4 47
e 4 49
e 5 6
e 5 20
e 5 26
e 5 36
e 5 37
e 6 8
e 6 12
e 6 17
e 6 36
e 6 50
e 7 11
e 7 24
e 7 28
e 7 33
e 7 38
e 8 9
e 8 14
e 8 18
e 8 25
e 9 14
e 9 17
e 9 25
e 9 37
e 9 50
e 10 11
e 10 12
e 10 32
e 10 35
e 10 39
e 10 50
e 11 23
e 11 25
e 11 34
e 12 20
e 12 24
e 12 29
e 12 49
e 13 27
e 13 31
e 13 34
e 13 38
e 13 43
e 14 37
e 14 45
e 14 47
e 15 21
e 15 24
e 15 29
e 15 30
e 15 34
e 15 42
e 16 18
e 16 26
e 16 27
e 16 37
e 16 39
e 16 46
e 17 31
e 17 38
e 17 46
e 17 48
e 18 28
e 18 29
e 18 34
e 18 47
e 19 26
e 19 27
e 19 29
e 19 35
e 19 48
e 20 33
e 20 34
e 20 44
e 20 48
e 21 23
e 21 35
e 21 42
e 21 49
e 22 30
e 22 40
e 22 42
e 22 43
e 22 46
e 23 25
e 23 32
e 23 39
e 24 41
e 24 46
e 24 49
e 25 40
e 25 44
e 26 31
e 26 40
e 26 44
e 27 30
e 27 39
e 27 41
e 28 45
e 28 47
e 28 48
e 29 36
e 29 45
e 30 36
e 30 40
e 31 43
e 31 45
e 32 33
e 32 37
e 32 40
e 33 35
e 33 44
e 33 45
e 34 41
e 35 42
e 36 39
e 36 50
e 37 38
e 38 46
e 39 44
e 40 47
e 41 42
e 41 48
e 42 46
e 43 49
e 43 50
e 44 50
n 2 1
n 4 4
n 5 2
n 7 4
n 8 4
n 9 4
n 10 4
n 13 3
n 14 4
n 15 3
n 19 1
n 22 2
n 23 4
n 25 4
n 32 4
n 33 4
n 34 3
n 39 4
n 41 3
n 44 4
n 45 4
n 46 2
n 47 4
n 49 4
n 50 4
